35
120
83	1
82	1
81	1
80	1
79	1
78	1
77	1
71	3
67	2
66	1
65	1
64	1
62	2
55	2
52	3
51	1
50	1
45	1
44	1
41	1
40	1
39	1
36	1
35	2
27	1
26	2
25	2
24	1
20	3
17	4
16	1
15	1
14	1
13	1
12	1
